p tw 67 75
1 2
2 13
3 4
3 8
4 37
5 6
6 7
7 39
8 9
9 10
9 11
10 11
11 12
12 14
13 24
14 15
14 17
15 16
16 39
17 18
18 19
19 20
20 21
21 22
22 23
23 25
23 27
24 35
25 26
26 39
27 28
28 29
29 30
29 32
30 31
31 39
32 33
33 34
34 36
35 46
35 17
36 39
37 38
38 63
39 40
40 41
41 42
42 43
43 44
44 45
45 47
46 57
47 48
48 49
49 50
50 51
51 52
51 55
52 53
53 54
54 55
55 56
56 58
57 65
58 59
59 60
60 61
61 62
62 63
63 64
65 66
65 8
66 67
67 3
67 5
